(set-logic ALL)
(declare-fun i1 () Int)
(declare-fun it1 () Int)
(declare-fun it2 () Int)
(declare-fun i2 () Int)
(declare-fun it3 () Int)
(declare-fun i3 () Int)
(declare-fun it4 () Int)
(declare-fun i4 () Int)
(declare-fun it5 () Int)
(declare-fun i5 () Int)
(declare-fun it6 () Int)
(declare-fun i6 () Int)
(declare-fun it7 () Int)
(declare-fun i7 () Int)
(declare-fun it15 () Int)
(declare-fun it16 () Int)
(declare-fun it17 () Int)
(declare-fun it18 () Int)
(declare-fun it19 () Int)
(declare-fun it20 () Int)
(declare-fun it21 () Int)
(declare-fun it22 () Int)
(declare-fun it23 () Int)
(declare-fun it24 () Int)
(declare-fun it25 () Int)
(declare-fun it26 () Int)
(declare-fun it27 () Int)
(declare-fun it28 () Int)
(declare-fun it104 () Int)
(declare-fun it105 () Int)
(declare-fun it106 () Int)
(declare-fun it107 () Int)
(declare-fun it108 () Int)
(declare-fun it109 () Int)
(declare-fun it110 () Int)
(declare-fun it111 () Int)
(declare-fun it112 () Int)
(declare-fun it113 () Int)
(declare-fun it114 () Int)
(declare-fun it115 () Int)
(declare-fun it116 () Int)
(declare-fun it117 () Int)
(declare-fun it118 () Int)
(declare-fun it119 () Int)
(declare-fun it120 () Int)
(declare-fun it121 () Int)
(declare-fun it122 () Int)
(declare-fun it123 () Int)
(declare-fun it124 () Int)
(declare-fun it101 () Int)
(assert (= (+ i1 (- 1)) 0))
(assert (= (+ it1 (- 5)) 0))
(assert (= (+ (* i2 (- 1)) it2 (- 4)) 0))
(assert (= (+ (* i3 (- 1)) it3) 0))
(assert (= (+ (* i4 (- 1)) it4) 0))
(assert (= (+ (* i5 (- 1)) it5) 0))
(assert (= (+ (* i6 (- 1)) it6) 0))
(assert (= (+ (* i7 (- 1)) it7) 0))
(assert (and (> (+ it4 (- 2)) 0) (= (+ it1 (- 5)) 0)))
(assert (= (+ it15 (- 18)) 0))
(assert (= (+ (* it2 (- 1)) it16 (- 12)) 0))
(assert (= (+ it17 (* it3 (- 1))) 0))
(assert (= (+ it18 (* it4 (- 1))) 0))
(assert (= (+ (* it5 (- 1)) it19) 0))
(assert (= it20 0))
(assert (= (+ it21 (* it7 (- 1))) 0))
(assert (and (<= (+ (* it18 (- 1)) it20 2) 0) (= (+ it15 (- 18)) 0)))
(assert (= (+ it22 (- 20)) 0))
(assert (= (+ it23 (* it16 (- 1)) (- 2)) 0))
(assert (= (+ (* it17 (- 1)) it24) 0))
(assert (= (+ (* it18 (- 1)) it25) 0))
(assert (= it26 0))
(assert (= (+ it27 (* it20 (- 1))) 0))
(assert (= (+ (* it21 (- 1)) it28) 0))
(assert (and (<= (+ it27 (* it25 (- 1)) (* it26 2) 3) 0) (= (+ it22 (- 20)) 0)))
(assert (= (+ it104 (- 21)) 0))
(assert (= (+ (* it23 (- 1)) it105 (- 1)) 0))
(assert (= (+ it106 (* it24 (- 1))) 0))
(assert (= (+ it107 (* it25 (- 1))) 0))
(assert (= (+ it108 (* it26 (- 1))) 0))
(assert (= (+ it109 (* it27 (- 1))) 0))
(assert (= (+ it110 (* it28 (- 1))) 0))
(assert (and (= (+ it104 (- 21)) 0) (= (+ it109 (* it107 (- 1)) (* it108 2) 3) 0)))
(assert (= (+ it111 (- 26)) 0))
(assert (= (+ it112 (* it105 (- 1)) (- 2)) 0))
(assert (= (+ (* it106 (- 1)) it113) 0))
(assert (= (+ (* it107 (- 1)) it114) 0))
(assert (= (+ it115 (* it108 (- 1))) 0))
(assert (= (+ (* it109 (- 1)) it116) 0))
(assert (= (+ it117 (* it108 (- 2)) (- 1)) 0))
(assert (= (+ it111 (- 26)) 0))
(assert (= (+ it118 (- 20)) 0))
(assert (= (+ (* it112 (- 1)) it119 (- 2)) 0))
(assert (= (+ (* it113 (- 1)) it120) 0))
(assert (= (+ (* it114 (- 1)) it121) 0))
(assert (= (+ it122 (* it117 (- 1))) 0))
(assert (= (+ (* it116 (- 1)) it123) 0))
(assert (= (+ (* it117 (- 1)) it124) 0))
(assert (let ((a!1 (* (* (+ 0 it122) (exp 2 (+ it101 (- 1)))) (+ 0 2)))
      (a!3 (* (* (+ 0 it122) (exp 2 (+ it101 (- 1)))) (+ 0 (- 2)))))
(let ((a!2 (+ a!1
              (* (exp 2 (+ it101 (- 1))) (+ 0 2))
              (+ 0 it123)
              (+ 0 (* it121 (- 1)))
              (+ 0 1)))
      (a!4 (+ a!3
              (* (exp 2 (+ it101 (- 1))) (+ 0 (- 2)))
              (+ 0 (* it123 (- 1)))
              (+ 0 it121)
              (+ 0 (- 1)))))
  (and (>= a!2 (+ 0 0))
       (>= (+ (* it122 2) it123 (* it121 (- 1)) 3) 0)
       (>= (+ it118 (- 20)) 0)
       (>= a!4 (+ 0 0))
       (>= (+ it101 (- 1)) 0)
       (>= (+ (* it118 (- 1)) 20) 0)
       (>= (+ (* it122 (- 2)) (* it123 (- 1)) it121 (- 3)) 0)))))
(check-sat)
